NAME : DD30.1133325.tour
COMMENT : Cost = 0_1133325
COMMENT : Found by LKH [Keld Helsgaun] Sun Apr 23 15:14:36 2017
TYPE : TOUR
DIMENSION : 62
TOUR_SECTION
1
10
40
5
35
11
23
41
53
26
56
28
58
7
37
9
39
17
47
19
49
15
45
22
29
59
21
52
30
51
60
62
3
8
38
14
44
16
33
46
2
24
32
25
54
12
42
55
27
57
13
43
4
34
20
50
31
61
6
36
18
48
-1
EOF
